DATASET = "thpack3";
INSTANCE = "021";

WIDTH = 233;
HEIGHT = 220;
LENGTH = 587;

NO_OF_SHAPES = 8;
size = [|
  109,93,72 |
  95,67,32 |
  119,45,36 |
  95,78,62 |
  116,89,32 |
  98,65,38 |
  72,51,24 |
  102,88,26 |
|];

verticality = [|
  1,1,1 |
  0,0,1 |
  0,1,1 |
  1,1,1 |
  0,0,1 |
  0,1,1 |
  0,0,1 |
  0,0,1 |
|];

box_count = [
  11,
  11,
  13,
  13,
  15,
  11,
  7,
  13,
];
